\* Problem: Unknown *\

Maximize
 obj: + xp_0_0 + xp_1_0 + xp_1_1 + xp_2_0 + xp_2_1 + xp_3_0 + xp_3_1
 + xp_4_0 + xp_5_0 + xp_6_0 + xp_7_0 + xp_8_0 + xp_9_0 + xp_9_1
 + xp_10_0 + xp_11_0 + xp_11_1 + xp_12_0 + xp_12_1 + xp_13_0 + xp_13_1
 + xp_14_0 + xp_14_1 + xp_15_0 + xp_16_0 + xp_17_0 + xp_17_1 + xp_18_0
 + xp_18_1 + xp_19_0 + xp_19_1 + xp_20_0 + xp_21_0 + xp_22_0 + xp_22_1
 + xp_23_0 + xp_24_0 + xp_24_1 + xp_24_2 + xp_25_0 + xp_26_0 + xp_27_0
 + xp_28_0 + xp_28_1 + xp_29_0 + xp_30_0 + xp_30_1 + xp_31_0 + xp_32_0
 + xp_32_1 + xp_32_2 + xp_33_0 + xp_34_0 + xp_34_1 + xp_35_0 + xp_36_0
 + xp_37_0 + xp_38_0 + xp_38_1 + xp_39_0 + xp_40_0 + xp_40_1 + xp_40_2
 + xp_41_0 + xp_42_0 + xp_42_1 + xp_42_2 + xp_43_0 + xp_44_0 + xp_45_0
 + xp_46_0 + xp_47_0 + xp_48_0 + xp_48_1 + xp_49_0 + xp_50_0 + xp_50_1
 + xp_51_0 + xp_52_0 + xp_53_0 + xp_54_0 + xp_55_0 + xp_56_0 + xp_57_0
 + xp_57_1 + xp_58_0 + xp_58_1 + xp_59_0 + xp_60_0 + xp_60_1 + xp_61_0
 + xp_61_1 + xp_62_0 + xp_63_0 + xp_63_1 + xp_64_0 + xp_65_0 + xp_65_1
 + xp_66_0 + xp_67_0 + xp_67_1 + xp_68_0 + xp_68_1 + xp_68_2 + xp_69_0
 + xp_70_0 + xp_71_0 + xp_72_0 + xp_73_0 + xp_74_0 + xp_74_1 + xp_75_0
 + xp_76_0 + xp_77_0 + xp_77_1 + xp_78_0 + xp_78_1 + xp_78_2 + xp_78_3
 + xp_78_4 + xp_79_0 + xp_79_1 + xp_80_0 + xp_80_1 + xp_81_0 + xp_81_1
 + xp_82_0 + xp_83_0 + xp_84_0 + xp_85_0 + xp_85_1 + xp_85_2 + xp_86_0
 + xp_86_1 + xp_86_2 + xp_87_0 + xp_88_0 + xp_89_0 + xp_89_1 + xp_90_0
 + xp_90_1 + xp_90_2 + xp_91_0 + xp_91_1 + xp_92_0 + xp_93_0 + xp_94_0
 + xp_94_1 + xp_95_0 + xp_95_1 + xp_96_0 + xp_96_1 + xp_97_0 + xp_98_0
 + xp_98_1 + xp_99_0 + xp_100_0 + xp_101_0 + xp_102_0 + xp_103_0
 + xp_104_0 + xp_105_0 + xp_105_1 + xp_106_0 + xp_107_0 + xp_108_0
 + xp_108_1 + xp_108_2 + xp_109_0 + xp_109_1 + xp_110_0 + xp_111_0
 + xp_111_1 + xp_112_0 + xp_112_1 + xp_112_2 + xp_113_0 + xp_114_0
 + xp_115_0 + xp_115_1 + xp_116_0 + xp_116_1 + xp_117_0 + xp_118_0
 + xp_119_0 + xp_120_0 + xp_120_1 + xp_120_2 + xp_121_0 + xp_122_0
 + xp_123_0 + xp_124_0 + xp_125_0 + xp_125_1 + xp_126_0 + xp_126_1
 + xp_126_2 + xp_126_3 + xp_126_4 + xp_127_0 + xp_127_1 + xp_128_0
 + xp_128_1 + xp_128_2 + xp_129_0 + xp_129_1 + xp_130_0 + xp_131_0
 + xp_131_1 + xp_131_2

Subject To
 r_1: + xp_128_2 + xp_128_1 + xp_122_0 + xp_121_0 + xp_108_2 + xp_107_0
 + xp_78_3 + xp_67_1 + xp_57_1 + xp_40_2 + xp_40_1 + xp_25_0 + xp_22_1
 + xp_18_0 + xp_16_0 + xp_13_1 + xp_4_0 <= 39327.3986152324
 r_2: + xp_131_2 + xp_131_1 + xp_127_1 + xp_126_1 + xp_120_2 + xp_120_0
 + xp_94_1 + xp_93_0 + xp_90_1 + xp_89_1 + xp_85_2 + xp_85_1 + xp_85_0
 + xp_77_1 + xp_75_0 + xp_74_1 + xp_71_0 + xp_66_0 + xp_65_1 + xp_65_0
 + xp_61_1 + xp_55_0 + xp_52_0 + xp_48_1 + xp_48_0 + xp_42_2 + xp_42_1
 + xp_38_1 + xp_32_2 + xp_32_1 + xp_32_0 + xp_28_1 + xp_28_0 + xp_24_2
 + xp_24_0 + xp_19_1 + xp_19_0 + xp_12_1 + xp_1_1 <= 35068.6005488044
 r_3: + xp_126_4 + xp_114_0 + xp_105_1 + xp_95_0 + xp_76_0 + xp_68_2
 + xp_58_1 + xp_48_1 + xp_34_0 + xp_32_1 <= 39327.3986152324
 r_4: + xp_117_0 + xp_95_1 + xp_91_1 + xp_91_0 + xp_84_0 + xp_79_1
 + xp_79_0 + xp_78_4 + xp_46_0 + xp_43_0 + xp_40_2 + xp_40_1 + xp_40_0
 + xp_34_1 <= 36540.9934171155
 r_5: + xp_130_0 + xp_99_0 + xp_86_0 + xp_78_4 + xp_7_0 + xp_2_0
 <= 39327.3986152324
 r_6: + xp_126_4 + xp_126_2 + xp_119_0 + xp_114_0 + xp_95_0 + xp_83_0
 + xp_81_0 + xp_70_0 + xp_68_2 + xp_68_1 + xp_58_1 + xp_53_0 + xp_48_1
 + xp_45_0 + xp_34_0 + xp_32_2 + xp_32_1 + xp_30_1 + xp_18_0
 <= 39033.1753554502
 r_7: + xp_112_2 + xp_112_1 + xp_111_1 + xp_104_0 + xp_88_0 + xp_82_0
 + xp_81_1 + xp_78_2 + xp_50_1 + xp_44_0 + xp_27_0 + xp_18_1 + xp_3_1
 <= 36540.9934171155
 r_8: + xp_131_2 + xp_131_1 + xp_127_1 + xp_126_1 + xp_120_2 + xp_120_0
 + xp_118_0 + xp_103_0 + xp_94_1 + xp_90_1 + xp_89_1 + xp_77_1 + xp_74_1
 + xp_71_0 + xp_61_1 + xp_55_0 + xp_42_2 + xp_42_1 + xp_38_1 + xp_32_2
 + xp_32_1 + xp_32_0 + xp_24_2 + xp_24_0 + xp_12_1 + xp_1_1
 <= 39327.3986152324
 r_9: + xp_131_0 + xp_127_0 + xp_122_0 + xp_120_1 + xp_108_2 + xp_78_3
 + xp_77_0 + xp_67_1 + xp_57_1 + xp_42_0 + xp_33_0 + xp_24_1
 <= 39648.3971044467
 r_10: + xp_112_2 + xp_112_1 + xp_111_1 + xp_106_0 + xp_99_0 + xp_98_0
 + xp_94_1 + xp_88_0 + xp_86_0 + xp_85_0 + xp_78_4 + xp_78_2 + xp_50_1
 + xp_26_0 + xp_24_0 + xp_8_0 + xp_7_0 + xp_3_1 + xp_2_0
 <= 39033.1753554502
 r_11: + xp_119_0 + xp_112_0 + xp_111_0 + xp_95_0 + xp_81_0 + xp_78_3
 + xp_78_1 + xp_78_0 + xp_59_0 + xp_53_0 + xp_50_0 + xp_49_0 + xp_45_0
 + xp_34_0 + xp_18_0 + xp_4_0 + xp_3_0 <= 36327.4587833997
 r_12: + xp_129_0 + xp_128_2 + xp_128_0 + xp_123_0 + xp_117_0 + xp_112_1
 + xp_111_1 + xp_108_1 + xp_101_0 + xp_91_1 + xp_82_0 + xp_81_1
 + xp_80_1 + xp_79_1 + xp_78_4 + xp_78_2 + xp_78_0 + xp_73_0 + xp_63_1
 + xp_60_0 + xp_50_1 + xp_46_0 + xp_44_0 + xp_40_1 + xp_40_0 + xp_18_1
 + xp_17_1 + xp_15_0 + xp_14_1 + xp_13_0 + xp_9_0 <= 36044.4209413009
 r_13: + xp_129_1 + xp_128_1 + xp_126_3 + xp_120_2 + xp_120_1 + xp_112_2
 + xp_109_1 + xp_100_0 + xp_96_1 + xp_95_1 + xp_91_0 + xp_90_0 + xp_80_0
 + xp_79_0 + xp_68_0 + xp_63_0 + xp_60_1 + xp_40_2 + xp_34_1 + xp_31_0
 + xp_30_0 + xp_17_0 + xp_13_1 + xp_9_1 <= 36327.4587833997
 r_14: + xp_131_2 + xp_131_1 + xp_131_0 + xp_126_4 + xp_126_2 + xp_125_1
 + xp_125_0 + xp_124_0 + xp_115_1 + xp_115_0 + xp_98_1 + xp_94_0
 + xp_86_2 + xp_86_1 + xp_85_2 + xp_85_1 + xp_77_1 + xp_77_0 + xp_68_2
 + xp_68_1 + xp_65_1 + xp_65_0 + xp_58_1 + xp_56_0 + xp_51_0 + xp_48_1
 + xp_41_0 + xp_38_1 + xp_38_0 + xp_35_0 + xp_32_2 + xp_32_1 + xp_30_1
 + xp_24_2 + xp_24_1 + xp_20_0 + xp_19_1 + xp_19_0 + xp_12_1 + xp_12_0
 + xp_2_1 + xp_0_0 <= 36540.9934171155
 r_15: + xp_131_2 + xp_131_0 + xp_126_4 + xp_126_3 + xp_126_2 + xp_125_0
 + xp_124_0 + xp_120_2 + xp_120_1 + xp_116_0 + xp_115_0 + xp_109_1
 + xp_98_1 + xp_96_1 + xp_94_0 + xp_90_0 + xp_89_1 + xp_89_0 + xp_86_1
 + xp_85_1 + xp_77_1 + xp_77_0 + xp_68_2 + xp_68_1 + xp_68_0 + xp_65_0
 + xp_58_1 + xp_51_0 + xp_48_1 + xp_42_1 + xp_42_0 + xp_38_0 + xp_36_0
 + xp_32_2 + xp_32_1 + xp_28_1 + xp_24_1 + xp_19_1 + xp_12_0 + xp_11_0
 + xp_0_0 <= 36044.4209413009
 r_16: + xp_128_0 + xp_123_0 + xp_108_1 + xp_108_0 + xp_78_4 + xp_78_2
 + xp_78_1 + xp_78_0 + xp_73_0 + xp_67_0 + xp_57_0 + xp_46_0 + xp_44_0
 + xp_40_0 + xp_22_0 + xp_18_1 + xp_13_0 + xp_6_0 <= 39648.3971044467
 r_17: + xp_129_0 + xp_128_2 + xp_126_0 + xp_112_1 + xp_111_1 + xp_109_0
 + xp_97_0 + xp_91_1 + xp_90_2 + xp_81_1 + xp_80_1 + xp_79_1 + xp_63_1
 + xp_62_0 + xp_61_0 + xp_60_0 + xp_47_0 + xp_40_1 + xp_22_1 + xp_17_1
 + xp_9_0 + xp_1_0 <= 35068.6005488044
 r_18: + xp_126_3 + xp_126_1 + xp_126_0 + xp_106_0 + xp_99_0 + xp_98_0
 + xp_94_1 + xp_92_0 + xp_86_0 + xp_85_0 + xp_68_0 + xp_58_0 + xp_48_0
 + xp_32_0 + xp_30_0 + xp_26_0 + xp_24_0 + xp_5_0 + xp_2_0
 <= 36327.4587833997
 r_19: + xp_131_1 + xp_125_1 + xp_116_1 + xp_115_1 + xp_110_0 + xp_108_1
 + xp_86_2 + xp_85_2 + xp_78_0 + xp_65_1 + xp_56_0 + xp_42_2 + xp_38_1
 + xp_28_0 + xp_24_2 + xp_19_0 + xp_14_1 + xp_12_1 + xp_11_1 + xp_3_0
 + xp_2_1 <= 36327.4587833997
 r_20: + xp_129_1 + xp_128_1 + xp_119_0 + xp_112_2 + xp_112_0 + xp_111_0
 + xp_108_2 + xp_108_0 + xp_107_0 + xp_95_1 + xp_95_0 + xp_91_0
 + xp_81_0 + xp_80_0 + xp_79_0 + xp_78_3 + xp_78_1 + xp_69_0 + xp_64_0
 + xp_63_0 + xp_60_1 + xp_50_0 + xp_49_0 + xp_45_0 + xp_40_2 + xp_18_0
 + xp_17_0 + xp_14_0 + xp_13_1 + xp_10_0 + xp_9_1 + xp_4_0
 <= 35068.6005488044
 r_21: + xp_126_4 + xp_113_0 + xp_105_1 + xp_86_2 + xp_86_1 + xp_77_1
 + xp_77_0 + xp_68_2 + xp_65_1 + xp_65_0 + xp_58_1 + xp_48_1 + xp_38_1
 + xp_38_0 + xp_32_1 + xp_20_0 + xp_2_1 + xp_0_0 <= 36540.9934171155
 r_22: + xp_126_2 + xp_124_0 + xp_105_0 + xp_98_1 + xp_94_0 + xp_85_2
 + xp_85_1 + xp_83_0 + xp_68_1 + xp_41_0 + xp_32_2 + xp_30_1 + xp_24_2
 + xp_24_1 <= 36540.9934171155
 r_23: + xp_128_2 + xp_128_1 + xp_128_0 + xp_117_0 + xp_112_2 + xp_112_1
 + xp_111_1 + xp_104_0 + xp_100_0 + xp_95_1 + xp_91_1 + xp_91_0
 + xp_84_0 + xp_82_0 + xp_81_1 + xp_80_1 + xp_80_0 + xp_79_1 + xp_79_0
 + xp_78_4 + xp_78_2 + xp_73_0 + xp_60_1 + xp_60_0 + xp_50_1 + xp_46_0
 + xp_44_0 + xp_40_2 + xp_40_1 + xp_40_0 + xp_34_1 + xp_21_0 + xp_18_1
 + xp_15_0 + xp_9_1 + xp_9_0 + xp_3_1 <= 36540.9934171155
 r_24: + xp_128_0 + xp_126_1 + xp_103_0 + xp_94_1 + xp_90_1 + xp_89_1
 + xp_74_1 + xp_61_1 + xp_40_0 + xp_39_0 + xp_38_1 + xp_22_0 + xp_18_1
 + xp_13_0 + xp_12_1 + xp_1_1 <= 39648.3971044467
 r_25: + xp_131_0 + xp_127_0 + xp_126_4 + xp_126_3 + xp_126_2 + xp_126_0
 + xp_120_1 + xp_94_0 + xp_90_2 + xp_90_0 + xp_89_0 + xp_77_0 + xp_74_0
 + xp_61_0 + xp_42_0 + xp_38_0 + xp_24_1 + xp_12_0 + xp_1_0
 <= 39648.3971044467
 r_26: + xp_128_2 + xp_128_1 + xp_121_0 + xp_112_2 + xp_112_1 + xp_112_0
 + xp_108_2 + xp_107_0 + xp_81_1 + xp_81_0 + xp_79_1 + xp_79_0 + xp_78_3
 + xp_67_1 + xp_64_0 + xp_60_1 + xp_60_0 + xp_57_1 + xp_47_0 + xp_40_2
 + xp_40_1 + xp_37_0 + xp_29_0 + xp_25_0 + xp_22_1 + xp_18_0 + xp_17_1
 + xp_17_0 + xp_13_1 + xp_4_0 <= 35068.6005488044
 r_27: + xp_131_2 + xp_127_1 + xp_125_0 + xp_120_2 + xp_116_0 + xp_115_0
 + xp_108_0 + xp_98_1 + xp_96_1 + xp_89_1 + xp_86_1 + xp_85_1 + xp_78_1
 + xp_77_1 + xp_74_1 + xp_72_0 + xp_67_0 + xp_65_0 + xp_58_1 + xp_57_0
 + xp_52_0 + xp_50_0 + xp_48_1 + xp_42_1 + xp_32_2 + xp_32_1 + xp_28_1
 + xp_23_0 + xp_19_1 + xp_14_0 + xp_11_0 <= 35068.6005488044
 r_28: + xp_131_1 + xp_126_1 + xp_126_0 + xp_125_1 + xp_120_0 + xp_116_1
 + xp_115_1 + xp_109_0 + xp_99_0 + xp_98_0 + xp_96_0 + xp_94_1 + xp_92_0
 + xp_90_2 + xp_90_1 + xp_86_2 + xp_86_0 + xp_85_2 + xp_85_0 + xp_75_0
 + xp_65_1 + xp_58_0 + xp_54_0 + xp_48_0 + xp_42_2 + xp_38_1 + xp_32_0
 + xp_28_0 + xp_26_0 + xp_24_2 + xp_24_0 + xp_19_0 + xp_12_1 + xp_11_1
 <= 35068.6005488044
 r_29: + xp_129_1 + xp_129_0 + xp_95_1 + xp_95_0 + xp_93_0 + xp_87_0
 + xp_71_0 + xp_62_0 + xp_49_0 + xp_45_0 + xp_10_0 + xp_9_1 + xp_9_0
 + xp_1_1 + xp_1_0 <= 35068.6005488044
 r_30: + xp_125_1 + xp_125_0 + xp_121_0 + xp_102_0 + xp_99_0 + xp_96_1
 + xp_96_0 + xp_92_0 + xp_57_1 + xp_57_0 + xp_37_0 + xp_26_0 + xp_23_0
 + xp_11_1 + xp_11_0 <= 35068.6005488044

Bounds
 0 <= xp_0_0 <= 236.938359294519
 0 <= xp_1_0 <= 164.996460815988
 0 <= xp_1_1 <= 18.3329400906653
 0 <= xp_2_0 <= 103.94181376314
 0 <= xp_2_1 <= 11.5490904181267
 0 <= xp_3_0 <= 164.758198778708
 0 <= xp_3_1 <= 18.3064665309676
 0 <= xp_4_0 <= 792.155090054777
 0 <= xp_5_0 <= 1087.86475187822
 0 <= xp_6_0 <= 1799.34166875422
 0 <= xp_7_0 <= 640.924880281599
 0 <= xp_8_0 <= 1516.00839608946
 0 <= xp_9_0 <= 54.3369812795532
 0 <= xp_9_1 <= 54.3369812795532
 0 <= xp_10_0 <= 55.0650041712402
 0 <= xp_11_0 <= 25.0175139143375
 0 <= xp_11_1 <= 16.6783426095583
 0 <= xp_12_0 <= 1868.15306879849
 0 <= xp_12_1 <= 207.572563199833
 0 <= xp_13_0 <= 177.114732767615
 0 <= xp_13_1 <= 75.9063140432637
 0 <= xp_14_0 <= 110.42783588908
 0 <= xp_14_1 <= 110.42783588908
 0 <= xp_15_0 <= 509.218920785484
 0 <= xp_16_0 <= 2651.92265881902
 0 <= xp_17_0 <= 149.145416946983
 0 <= xp_17_1 <= 149.145416946983
 0 <= xp_18_0 <= 216.302219510153
 0 <= xp_18_1 <= 144.201479673435
 0 <= xp_19_0 <= 531.522894830806
 0 <= xp_19_1 <= 531.522894830806
 0 <= xp_20_0 <= 128.793867929367
 0 <= xp_21_0 <= 275.655940352423
 0 <= xp_22_0 <= 618.653998185899
 0 <= xp_22_1 <= 618.653998185899
 0 <= xp_23_0 <= 52.2190965037362
 0 <= xp_24_0 <= 171.052287596839
 0 <= xp_24_1 <= 136.841830077472
 0 <= xp_24_2 <= 34.2104575193679
 0 <= xp_25_0 <= 581.293187062504
 0 <= xp_26_0 <= 15.420848523917
 0 <= xp_27_0 <= 339.391035324663
 0 <= xp_28_0 <= 335.221449672274
 0 <= xp_28_1 <= 335.221449672274
 0 <= xp_29_0 <= 2458.73185692497
 0 <= xp_30_0 <= 147.351833277463
 0 <= xp_30_1 <= 36.8379583193658
 0 <= xp_31_0 <= 191.470020513699
 0 <= xp_32_0 <= 1809.04422838343
 0 <= xp_32_1 <= 226.130528547928
 0 <= xp_32_2 <= 226.130528547928
 0 <= xp_33_0 <= 8096.07784285493
 0 <= xp_34_0 <= 205.275981896056
 0 <= xp_34_1 <= 307.913972844084
 0 <= xp_35_0 <= 262.220608805834
 0 <= xp_36_0 <= 320.396256241555
 0 <= xp_37_0 <= 366.526434014818
 0 <= xp_38_0 <= 302.711918363484
 0 <= xp_38_1 <= 33.6346575959426
 0 <= xp_39_0 <= 1580.60388175187
 0 <= xp_40_0 <= 426.522138679757
 0 <= xp_40_1 <= 255.913283207854
 0 <= xp_40_2 <= 170.608855471903
 0 <= xp_41_0 <= 80.2810697833106
 0 <= xp_42_0 <= 365.017441112048
 0 <= xp_42_1 <= 45.627180139006
 0 <= xp_42_2 <= 45.627180139006
 0 <= xp_43_0 <= 494.327543455521
 0 <= xp_44_0 <= 460.706122639427
 0 <= xp_45_0 <= 42.7547989118043
 0 <= xp_46_0 <= 1612.96780848233
 0 <= xp_47_0 <= 883.025583717172
 0 <= xp_48_0 <= 2627.97070568252
 0 <= xp_48_1 <= 291.996745075835
 0 <= xp_49_0 <= 88.4878732896012
 0 <= xp_50_0 <= 551.589853081671
 0 <= xp_50_1 <= 236.395651320716
 0 <= xp_51_0 <= 712.86677876013
 0 <= xp_52_0 <= 665.479106901227
 0 <= xp_53_0 <= 190.808181521257
 0 <= xp_54_0 <= 3710.732678929
 0 <= xp_55_0 <= 1190.71453130383
 0 <= xp_56_0 <= 96.2313895011818
 0 <= xp_57_0 <= 186.320913152495
 0 <= xp_57_1 <= 20.7023236836105
 0 <= xp_58_0 <= 3654.19839219453
 0 <= xp_58_1 <= 913.549598048634
 0 <= xp_59_0 <= 10694.0606237899
 0 <= xp_60_0 <= 408.619393934179
 0 <= xp_60_1 <= 272.412929289453
 0 <= xp_61_0 <= 1701.97853457596
 0 <= xp_61_1 <= 729.419371961125
 0 <= xp_62_0 <= 131.838327294604
 0 <= xp_63_0 <= 105.947185910242
 0 <= xp_63_1 <= 26.4867964775605
 0 <= xp_64_0 <= 999.045959092393
 0 <= xp_65_0 <= 419.870656805707
 0 <= xp_65_1 <= 104.967664201427
 0 <= xp_66_0 <= 1687.88798242685
 0 <= xp_67_0 <= 325.20120732669
 0 <= xp_67_1 <= 81.3003018316725
 0 <= xp_68_0 <= 444.080727149264
 0 <= xp_68_1 <= 888.161454298528
 0 <= xp_68_2 <= 148.026909049755
 0 <= xp_69_0 <= 1726.671747384
 0 <= xp_70_0 <= 634.637409853393
 0 <= xp_71_0 <= 71.2138755868443
 0 <= xp_72_0 <= 601.876379727474
 0 <= xp_73_0 <= 927.368796210839
 0 <= xp_74_0 <= 861.972485367567
 0 <= xp_74_1 <= 95.7747205963963
 0 <= xp_75_0 <= 1772.33863786255
 0 <= xp_76_0 <= 1730.24567794319
 0 <= xp_77_0 <= 459.898679068647
 0 <= xp_77_1 <= 114.974669767162
 0 <= xp_78_0 <= 2812.61054779421
 0 <= xp_78_1 <= 2812.61054779421
 0 <= xp_78_2 <= 11250.4421911768
 0 <= xp_78_3 <= 8437.83164338262
 0 <= xp_78_4 <= 2812.61054779421
 0 <= xp_79_0 <= 642.433873184369
 0 <= xp_79_1 <= 428.289248789579
 0 <= xp_80_0 <= 135.968202607447
 0 <= xp_80_1 <= 90.6454684049647
 0 <= xp_81_0 <= 209.776487044667
 0 <= xp_81_1 <= 52.4441217611668
 0 <= xp_82_0 <= 220.921855677404
 0 <= xp_83_0 <= 506.439197017224
 0 <= xp_84_0 <= 894.607766084921
 0 <= xp_85_0 <= 205.40173130462
 0 <= xp_85_1 <= 164.321385043696
 0 <= xp_85_2 <= 41.0803462609241
 0 <= xp_86_0 <= 86.1714368160514
 0 <= xp_86_1 <= 68.9371494528411
 0 <= xp_86_2 <= 17.2342873632103
 0 <= xp_87_0 <= 142.030647778223
 0 <= xp_88_0 <= 427.481805218799
 0 <= xp_89_0 <= 2009.38289139586
 0 <= xp_89_1 <= 223.264765710651
 0 <= xp_90_0 <= 10909.5223077796
 0 <= xp_90_1 <= 8727.61784622369
 0 <= xp_90_2 <= 2181.90446155592
 0 <= xp_91_0 <= 1367.98810542963
 0 <= xp_91_1 <= 1367.98810542963
 0 <= xp_92_0 <= 67.2428416321876
 0 <= xp_93_0 <= 131.176488302161
 0 <= xp_94_0 <= 214.554964570104
 0 <= xp_94_1 <= 23.8394405077893
 0 <= xp_95_0 <= 55.5150546861013
 0 <= xp_95_1 <= 6.16833940956681
 0 <= xp_96_0 <= 104.477903347019
 0 <= xp_96_1 <= 11.6086559274466
 0 <= xp_97_0 <= 530.530136342141
 0 <= xp_98_0 <= 115.10703756565
 0 <= xp_98_1 <= 28.7767593914126
 0 <= xp_99_0 <= 16.4797909118255
 0 <= xp_100_0 <= 506.240645319491
 0 <= xp_101_0 <= 251.498817128261
 0 <= xp_102_0 <= 75.4496451384782
 0 <= xp_103_0 <= 1449.16265785274
 0 <= xp_104_0 <= 132.764901884024
 0 <= xp_105_0 <= 1313.41948050272
 0 <= xp_105_1 <= 145.935497833635
 0 <= xp_106_0 <= 41.6958565238958
 0 <= xp_107_0 <= 452.697870830869
 0 <= xp_108_0 <= 341.853076376551
 0 <= xp_108_1 <= 170.926538188275
 0 <= xp_108_2 <= 341.853076376551
 0 <= xp_109_0 <= 486.517843344696
 0 <= xp_109_1 <= 486.517843344696
 0 <= xp_110_0 <= 134.08857986891
 0 <= xp_111_0 <= 2355.29965918601
 0 <= xp_111_1 <= 588.824914796503
 0 <= xp_112_0 <= 3769.67605959595
 0 <= xp_112_1 <= 471.209507449494
 0 <= xp_112_2 <= 471.209507449494
 0 <= xp_113_0 <= 428.209828110486
 0 <= xp_114_0 <= 2413.59443764037
 0 <= xp_115_0 <= 155.664531022544
 0 <= xp_115_1 <= 66.7133704382334
 0 <= xp_116_0 <= 112.532483885048
 0 <= xp_116_1 <= 48.2282073793062
 0 <= xp_117_0 <= 1956.06514216467
 0 <= xp_118_0 <= 3175.50348574051
 0 <= xp_119_0 <= 63.2056237782866
 0 <= xp_120_0 <= 1528.75541508391
 0 <= xp_120_1 <= 436.787261452544
 0 <= xp_120_2 <= 218.393630726272
 0 <= xp_121_0 <= 76.0453002316767
 0 <= xp_122_0 <= 2289.76436215433
 0 <= xp_123_0 <= 517.227172594041
 0 <= xp_124_0 <= 138.58908501752
 0 <= xp_125_0 <= 16.4797909118255
 0 <= xp_125_1 <= 10.9865272745503
 0 <= xp_126_0 <= 2554.63894531985
 0 <= xp_126_1 <= 7663.91683595956
 0 <= xp_126_2 <= 10218.5557812794
 0 <= xp_126_3 <= 2554.63894531985
 0 <= xp_126_4 <= 2554.63894531985
 0 <= xp_127_0 <= 232.252539228024
 0 <= xp_127_1 <= 348.378808842036
 0 <= xp_128_0 <= 245.290767379147
 0 <= xp_128_1 <= 122.645383689574
 0 <= xp_128_2 <= 40.8817945631912
 0 <= xp_129_0 <= 19.7228019747952
 0 <= xp_129_1 <= 29.5842029621928
 0 <= xp_130_0 <= 406.30295746063
 0 <= xp_131_0 <= 231.848817442634
 0 <= xp_131_1 <= 309.131756590179
 0 <= xp_131_2 <= 231.848817442634

End
